# Node Net
180   1
2220   1
3572   1
2280   1
2761   2
 32   2
 11   2
1321   2
1921   3
3584   3
3576   3
3571   3
3592   4
 14   4
 22   4
721   4
 38   5
3180   5
3564   5
2460   6
2821   6
2521   6
181   7
181   7
 35   7
3553   8
 29   8
2161   8
  3   9
301   9
 24  10
 40  10
3540  11
3546  11
1021  12
 36  12
3061  13
3587  13
3300  14
1621  14
